p edge 1256 1206
e 1 2
e 1 3
e 1 4
e 1 5
e 1 6
e 1 7
e 1 8
e 1 9
e 1 10
e 1 11
e 1 12
e 1 13
e 1 14
e 1 15
e 1 16
e 1 17
e 1 18
e 1 19
e 1 20
e 1 21
e 1 22
e 1 23
e 1 24
e 1 25
e 1 26
e 1 27
e 1 28
e 29 30
e 29 31
e 29 32
e 29 33
e 29 34
e 29 35
e 29 36
e 29 37
e 29 38
e 29 39
e 29 40
e 29 41
e 29 42
e 29 43
e 29 44
e 29 45
e 29 46
e 29 47
e 29 48
e 29 49
e 29 50
e 29 51
e 29 52
e 29 53
e 29 54
e 55 56
e 55 57
e 55 58
e 55 59
e 55 60
e 55 61
e 55 62
e 55 63
e 55 64
e 55 65
e 55 66
e 55 67
e 55 68
e 55 69
e 70 71
e 70 72
e 70 73
e 70 74
e 70 75
e 70 76
e 70 77
e 70 78
e 70 79
e 70 80
e 70 81
e 70 82
e 70 83
e 70 84
e 70 85
e 86 87
e 86 88
e 86 89
e 86 90
e 86 91
e 86 92
e 86 93
e 86 94
e 86 95
e 86 96
e 86 97
e 86 98
e 86 99
e 86 100
e 86 101
e 102 103
e 102 104
e 102 105
e 102 106
e 102 107
e 102 108
e 102 109
e 102 110
e 102 111
e 102 112
e 102 113
e 102 114
e 102 115
e 102 116
e 102 117
e 102 118
e 102 119
e 102 120
e 102 121
e 102 122
e 102 123
e 102 124
e 102 125
e 102 126
e 102 127
e 102 128
e 102 129
e 102 130
e 102 131
e 102 132
e 102 133
e 102 134
e 102 135
e 102 136
e 137 138
e 137 139
e 137 140
e 137 141
e 137 142
e 137 143
e 137 144
e 137 145
e 137 146
e 137 147
e 137 148
e 137 149
e 137 150
e 137 151
e 137 152
e 137 153
e 137 154
e 137 155
e 137 156
e 137 157
e 137 158
e 137 159
e 137 160
e 137 161
e 137 162
e 137 163
e 137 164
e 137 165
e 137 166
e 137 167
e 137 168
e 169 170
e 169 171
e 169 172
e 169 173
e 169 174
e 169 175
e 169 176
e 169 177
e 169 178
e 169 179
e 169 180
e 169 181
e 169 182
e 169 183
e 169 184
e 169 185
e 186 187
e 186 188
e 186 189
e 186 190
e 186 191
e 186 192
e 186 193
e 186 194
e 186 195
e 186 196
e 186 197
e 186 198
e 186 199
e 200 201
e 200 202
e 200 203
e 200 204
e 200 205
e 200 206
e 200 207
e 200 208
e 200 209
e 200 210
e 200 211
e 200 212
e 200 213
e 200 214
e 200 215
e 200 216
e 200 217
e 200 218
e 200 219
e 200 220
e 200 221
e 200 222
e 200 223
e 200 224
e 200 225
e 200 226
e 200 227
e 200 228
e 200 229
e 200 230
e 200 231
e 200 232
e 200 233
e 200 234
e 200 235
e 200 236
e 200 237
e 238 239
e 238 240
e 238 241
e 238 242
e 238 243
e 238 244
e 238 245
e 238 246
e 238 247
e 238 248
e 238 249
e 238 250
e 238 251
e 238 252
e 238 253
e 238 254
e 238 255
e 238 256
e 238 257
e 238 258
e 238 259
e 260 261
e 260 262
e 260 263
e 260 264
e 260 265
e 260 266
e 260 267
e 260 268
e 260 269
e 260 270
e 260 271
e 260 272
e 260 273
e 260 274
e 260 275
e 260 276
e 277 278
e 277 279
e 277 280
e 277 281
e 277 282
e 277 283
e 277 284
e 277 285
e 277 286
e 277 287
e 277 288
e 277 289
e 277 290
e 277 291
e 277 292
e 277 293
e 277 294
e 277 295
e 277 296
e 277 297
e 277 298
e 299 300
e 299 301
e 299 302
e 299 303
e 299 304
e 299 305
e 299 306
e 299 307
e 299 308
e 299 309
e 299 310
e 299 311
e 299 312
e 299 313
e 299 314
e 299 315
e 299 316
e 299 317
e 299 318
e 299 319
e 299 320
e 299 321
e 299 322
e 299 323
e 299 324
e 299 325
e 299 326
e 299 327
e 299 328
e 299 329
e 299 330
e 299 331
e 299 332
e 299 333
e 299 334
e 335 336
e 335 337
e 335 338
e 335 339
e 335 340
e 335 341
e 335 342
e 335 343
e 335 344
e 335 345
e 335 346
e 335 347
e 335 348
e 335 349
e 335 350
e 335 351
e 335 352
e 335 353
e 335 354
e 355 356
e 355 357
e 355 358
e 355 359
e 355 360
e 355 361
e 355 362
e 355 363
e 355 364
e 355 365
e 355 366
e 355 367
e 355 368
e 355 369
e 355 370
e 355 371
e 355 372
e 355 373
e 355 374
e 355 375
e 355 376
e 355 377
e 355 378
e 355 379
e 355 380
e 355 381
e 355 382
e 355 383
e 355 384
e 385 386
e 385 387
e 385 388
e 385 389
e 385 390
e 385 391
e 385 392
e 385 393
e 385 394
e 385 395
e 385 396
e 385 397
e 385 398
e 385 399
e 385 400
e 385 401
e 402 403
e 402 404
e 402 405
e 402 406
e 402 407
e 402 408
e 402 409
e 402 410
e 402 411
e 402 412
e 402 413
e 402 414
e 402 415
e 402 416
e 402 417
e 402 418
e 402 419
e 402 420
e 402 421
e 402 422
e 402 423
e 402 424
e 402 425
e 402 426
e 402 427
e 402 428
e 429 430
e 429 431
e 429 432
e 429 433
e 429 434
e 429 435
e 429 436
e 429 437
e 429 438
e 429 439
e 429 440
e 429 441
e 429 442
e 429 443
e 429 444
e 429 445
e 429 446
e 429 447
e 429 448
e 429 449
e 429 450
e 429 451
e 429 452
e 429 453
e 429 454
e 429 455
e 429 456
e 429 457
e 429 458
e 429 459
e 429 460
e 429 461
e 462 463
e 462 464
e 462 465
e 462 466
e 462 467
e 462 468
e 462 469
e 462 470
e 462 471
e 462 472
e 462 473
e 462 474
e 462 475
e 462 476
e 462 477
e 462 478
e 462 479
e 462 480
e 462 481
e 462 482
e 483 484
e 483 485
e 483 486
e 483 487
e 483 488
e 483 489
e 483 490
e 483 491
e 483 492
e 483 493
e 483 494
e 495 496
e 495 497
e 495 498
e 495 499
e 495 500
e 495 501
e 495 502
e 495 503
e 495 504
e 495 505
e 495 506
e 507 508
e 507 509
e 507 510
e 507 511
e 507 512
e 507 513
e 507 514
e 507 515
e 507 516
e 507 517
e 507 518
e 507 519
e 507 520
e 507 521
e 507 522
e 507 523
e 507 524
e 507 525
e 507 526
e 507 527
e 507 528
e 507 529
e 507 530
e 507 531
e 507 532
e 507 533
e 507 534
e 507 535
e 507 536
e 507 537
e 507 538
e 507 539
e 507 540
e 507 541
e 542 543
e 542 544
e 542 545
e 542 546
e 542 547
e 542 548
e 542 549
e 542 550
e 542 551
e 542 552
e 542 553
e 542 554
e 542 555
e 542 556
e 542 557
e 542 558
e 542 559
e 542 560
e 542 561
e 542 562
e 542 563
e 542 564
e 542 565
e 542 566
e 542 567
e 542 568
e 542 569
e 542 570
e 542 571
e 542 572
e 542 573
e 542 574
e 542 575
e 576 577
e 576 578
e 576 579
e 576 580
e 576 581
e 576 582
e 576 583
e 576 584
e 576 585
e 576 586
e 576 587
e 576 588
e 576 589
e 576 590
e 576 591
e 576 592
e 576 593
e 576 594
e 595 596
e 595 597
e 595 598
e 595 599
e 595 600
e 595 601
e 595 602
e 595 603
e 595 604
e 595 605
e 595 606
e 595 607
e 595 608
e 595 609
e 595 610
e 595 611
e 595 612
e 595 613
e 595 614
e 595 615
e 595 616
e 595 617
e 595 618
e 595 619
e 595 620
e 595 621
e 622 623
e 622 624
e 622 625
e 622 626
e 622 627
e 622 628
e 622 629
e 622 630
e 622 631
e 622 632
e 622 633
e 622 634
e 622 635
e 622 636
e 622 637
e 622 638
e 622 639
e 622 640
e 622 641
e 622 642
e 622 643
e 622 644
e 622 645
e 622 646
e 622 647
e 622 648
e 622 649
e 622 650
e 622 651
e 622 652
e 622 653
e 622 654
e 622 655
e 622 656
e 622 657
e 622 658
e 622 659
e 622 660
e 622 661
e 662 663
e 662 664
e 662 665
e 662 666
e 662 667
e 662 668
e 662 669
e 662 670
e 662 671
e 662 672
e 662 673
e 662 674
e 662 675
e 662 676
e 662 677
e 662 678
e 662 679
e 662 680
e 662 681
e 662 682
e 662 683
e 662 684
e 662 685
e 662 686
e 662 687
e 662 688
e 662 689
e 662 690
e 662 691
e 662 692
e 662 693
e 662 694
e 662 695
e 662 696
e 697 698
e 697 699
e 697 700
e 697 701
e 697 702
e 697 703
e 697 704
e 697 705
e 697 706
e 697 707
e 697 708
e 697 709
e 697 710
e 711 712
e 711 713
e 711 714
e 711 715
e 711 716
e 711 717
e 711 718
e 711 719
e 711 720
e 711 721
e 711 722
e 723 724
e 723 725
e 723 726
e 723 727
e 723 728
e 723 729
e 723 730
e 723 731
e 723 732
e 723 733
e 723 734
e 723 735
e 723 736
e 723 737
e 723 738
e 723 739
e 723 740
e 723 741
e 723 742
e 723 743
e 723 744
e 745 746
e 745 747
e 745 748
e 745 749
e 745 750
e 745 751
e 745 752
e 745 753
e 745 754
e 745 755
e 745 756
e 745 757
e 745 758
e 745 759
e 745 760
e 745 761
e 745 762
e 745 763
e 745 764
e 745 765
e 745 766
e 745 767
e 745 768
e 769 770
e 769 771
e 769 772
e 769 773
e 769 774
e 769 775
e 769 776
e 769 777
e 769 778
e 769 779
e 769 780
e 769 781
e 769 782
e 769 783
e 769 784
e 769 785
e 769 786
e 769 787
e 769 788
e 769 789
e 769 790
e 769 791
e 769 792
e 769 793
e 794 795
e 794 796
e 794 797
e 794 798
e 794 799
e 794 800
e 794 801
e 794 802
e 794 803
e 794 804
e 794 805
e 794 806
e 794 807
e 794 808
e 794 809
e 794 810
e 794 811
e 794 812
e 794 813
e 814 815
e 814 816
e 814 817
e 814 818
e 814 819
e 814 820
e 814 821
e 814 822
e 814 823
e 814 824
e 814 825
e 814 826
e 814 827
e 814 828
e 814 829
e 814 830
e 814 831
e 814 832
e 814 833
e 814 834
e 835 836
e 835 837
e 835 838
e 835 839
e 835 840
e 835 841
e 835 842
e 835 843
e 835 844
e 835 845
e 835 846
e 835 847
e 835 848
e 835 849
e 835 850
e 835 851
e 835 852
e 835 853
e 835 854
e 835 855
e 835 856
e 835 857
e 835 858
e 835 859
e 835 860
e 835 861
e 835 862
e 835 863
e 835 864
e 835 865
e 835 866
e 835 867
e 835 868
e 835 869
e 835 870
e 871 872
e 871 873
e 871 874
e 871 875
e 871 876
e 871 877
e 871 878
e 871 879
e 871 880
e 871 881
e 871 882
e 871 883
e 871 884
e 871 885
e 871 886
e 871 887
e 871 888
e 889 890
e 889 891
e 889 892
e 889 893
e 889 894
e 889 895
e 889 896
e 889 897
e 889 898
e 889 899
e 889 900
e 889 901
e 889 902
e 889 903
e 889 904
e 889 905
e 889 906
e 889 907
e 889 908
e 889 909
e 889 910
e 889 911
e 912 913
e 912 914
e 912 915
e 912 916
e 912 917
e 912 918
e 912 919
e 912 920
e 912 921
e 912 922
e 912 923
e 912 924
e 912 925
e 912 926
e 912 927
e 912 928
e 912 929
e 912 930
e 912 931
e 912 932
e 912 933
e 912 934
e 935 936
e 935 937
e 935 938
e 935 939
e 935 940
e 935 941
e 935 942
e 935 943
e 935 944
e 935 945
e 935 946
e 935 947
e 935 948
e 935 949
e 935 950
e 935 951
e 935 952
e 935 953
e 935 954
e 935 955
e 935 956
e 935 957
e 935 958
e 935 959
e 935 960
e 935 961
e 935 962
e 935 963
e 935 964
e 935 965
e 935 966
e 935 967
e 935 968
e 935 969
e 935 970
e 935 971
e 935 972
e 973 974
e 973 975
e 973 976
e 973 977
e 973 978
e 973 979
e 973 980
e 973 981
e 973 982
e 973 983
e 973 984
e 973 985
e 973 986
e 973 987
e 973 988
e 973 989
e 973 990
e 973 991
e 973 992
e 973 993
e 973 994
e 973 995
e 973 996
e 973 997
e 973 998
e 999 1000
e 999 1001
e 999 1002
e 999 1003
e 999 1004
e 999 1005
e 999 1006
e 999 1007
e 999 1008
e 999 1009
e 999 1010
e 999 1011
e 1012 1013
e 1012 1014
e 1012 1015
e 1012 1016
e 1012 1017
e 1012 1018
e 1012 1019
e 1012 1020
e 1012 1021
e 1012 1022
e 1012 1023
e 1012 1024
e 1012 1025
e 1012 1026
e 1012 1027
e 1012 1028
e 1012 1029
e 1012 1030
e 1012 1031
e 1012 1032
e 1012 1033
e 1012 1034
e 1012 1035
e 1012 1036
e 1012 1037
e 1012 1038
e 1012 1039
e 1012 1040
e 1012 1041
e 1012 1042
e 1012 1043
e 1012 1044
e 1012 1045
e 1012 1046
e 1047 1048
e 1047 1049
e 1047 1050
e 1047 1051
e 1047 1052
e 1047 1053
e 1047 1054
e 1047 1055
e 1047 1056
e 1047 1057
e 1047 1058
e 1047 1059
e 1047 1060
e 1047 1061
e 1047 1062
e 1047 1063
e 1047 1064
e 1047 1065
e 1047 1066
e 1047 1067
e 1047 1068
e 1047 1069
e 1047 1070
e 1047 1071
e 1047 1072
e 1047 1073
e 1047 1074
e 1047 1075
e 1047 1076
e 1047 1077
e 1047 1078
e 1047 1079
e 1047 1080
e 1081 1082
e 1081 1083
e 1081 1084
e 1081 1085
e 1081 1086
e 1081 1087
e 1081 1088
e 1081 1089
e 1081 1090
e 1081 1091
e 1081 1092
e 1081 1093
e 1081 1094
e 1081 1095
e 1081 1096
e 1081 1097
e 1081 1098
e 1081 1099
e 1100 1101
e 1100 1102
e 1100 1103
e 1100 1104
e 1100 1105
e 1100 1106
e 1100 1107
e 1100 1108
e 1100 1109
e 1100 1110
e 1100 1111
e 1100 1112
e 1100 1113
e 1100 1114
e 1100 1115
e 1100 1116
e 1100 1117
e 1100 1118
e 1100 1119
e 1100 1120
e 1100 1121
e 1100 1122
e 1100 1123
e 1100 1124
e 1100 1125
e 1100 1126
e 1127 1128
e 1127 1129
e 1127 1130
e 1127 1131
e 1127 1132
e 1127 1133
e 1127 1134
e 1127 1135
e 1127 1136
e 1127 1137
e 1127 1138
e 1127 1139
e 1127 1140
e 1127 1141
e 1127 1142
e 1127 1143
e 1127 1144
e 1127 1145
e 1127 1146
e 1127 1147
e 1127 1148
e 1127 1149
e 1127 1150
e 1127 1151
e 1127 1152
e 1127 1153
e 1127 1154
e 1127 1155
e 1127 1156
e 1127 1157
e 1127 1158
e 1127 1159
e 1127 1160
e 1127 1161
e 1127 1162
e 1127 1163
e 1127 1164
e 1165 1166
e 1165 1167
e 1165 1168
e 1165 1169
e 1165 1170
e 1165 1171
e 1165 1172
e 1165 1173
e 1165 1174
e 1165 1175
e 1165 1176
e 1165 1177
e 1165 1178
e 1165 1179
e 1165 1180
e 1165 1181
e 1165 1182
e 1165 1183
e 1165 1184
e 1165 1185
e 1186 1187
e 1186 1188
e 1186 1189
e 1186 1190
e 1186 1191
e 1186 1192
e 1186 1193
e 1186 1194
e 1186 1195
e 1186 1196
e 1186 1197
e 1186 1198
e 1186 1199
e 1186 1200
e 1186 1201
e 1186 1202
e 1186 1203
e 1186 1204
e 1186 1205
e 1186 1206
e 1186 1207
e 1186 1208
e 1186 1209
e 1186 1210
e 1186 1211
e 1186 1212
e 1186 1213
e 1186 1214
e 1186 1215
e 1186 1216
e 1186 1217
e 1186 1218
e 1219 1220
e 1219 1221
e 1219 1222
e 1219 1223
e 1219 1224
e 1219 1225
e 1219 1226
e 1219 1227
e 1219 1228
e 1219 1229
e 1219 1230
e 1219 1231
e 1219 1232
e 1219 1233
e 1219 1234
e 1219 1235
e 1219 1236
e 1219 1237
e 1219 1238
e 1219 1239
e 1219 1240
e 1219 1241
e 1219 1242
e 1219 1243
e 1219 1244
e 1219 1245
e 1219 1246
e 1219 1247
e 1219 1248
e 1219 1249
e 1219 1250
e 1219 1251
e 1219 1252
e 1219 1253
e 1219 1254
e 1219 1255
e 1219 1256
